n = 100;
C = 471;
w = [63,682,408,570,596,423,452,687,137,280,484,237,830,242,617,972,647,813,105,310,955,541,718,538,790,876,301,18,687,47,344,189,75,949,341,357,65,915,100,122,36,562,213,965,388,519,15,798,476,91,642,206,933,857,790,726,186,154,194,278,203,332,278,871,579,566,825,994,865,934,893,207,82,419,597,495,6,715,694,353,174,423,851,729,301,274,727,364,468,454,759,629,267,159,573,132,655,501,198,130];
p = [69,651,488,661,693,519,402,740,48,310,473,282,775,153,585,1019,594,909,168,259,890,480,657,620,777,971,289,104,630,77,414,226,139,931,308,428,153,1011,95,155,-56,470,222,1056,416,594,-46,719,507,38,668,136,857,847,733,737,219,141,189,371,107,248,206,778,505,637,815,903,851,940,820,238,142,497,504,522,-79,734,603,340,267,522,815,801,353,328,738,386,519,443,720,642,240,103,510,157,709,403,106,221];
